benchmark/instancefiles/cbf/ck_n25_m10_o1_1.cbf
#<CBLIB:AUTOGEN>
# Contributor: Alper Atamtürk
# Chance constrained knapsack problem.
#
# @article{Atamturk2009,
# author = {Atamt\"{u}rk, Alper and Narayanan, Vishnu},
# doi = {10.1016/j.disopt.2009.03.002},
# issn = {15725286},
# journal = {Discrete Optimization},
# number = {4},
# pages = {333--344},
# publisher = {Elsevier B.V.},
# title = {{The submodular knapsack polytope}},
# volume = {6},
# year = {2009}
# }
#</CBLIB:AUTOGEN>
VER
1

OBJSENSE
MAX

VAR
556 13
L+ 25
L= 1
L+ 260
QR 27
QR 27
QR 27
QR 27
QR 27
QR 27
QR 27
QR 27
QR 27
QR 27

INT
25
0
1
2
3
4
5
6
7
8
9
10
11
12
13
14
15
16
17
18
19
20
21
22
23
24

CON
555 22
L= 25
L- 1
L= 25
L- 1
L= 25
L- 1
L= 25
L- 1
L= 25
L- 1
L= 25
L- 1
L= 25
L- 1
L= 25
L- 1
L= 25
L- 1
L= 25
L- 1
L= 270
L- 25

OBJACOORD
26
0 384
1 775
2 944
3 917
4 862
5 204
6 794
7 549
8 298
9 905
10 910
11 874
12 499
13 577
14 163
15 274
16 865
17 493
18 464
19 849
20 496
21 292
22 181
23 685
24 728
25 1

ACOORD
867
52 0 2
77 0 3
156 0 56
181 0 93
53 1 24
77 1 24
133 3 6
155 3 96
211 3 21
233 3 35
238 4 24
259 4 27
188 6 17
207 6 65
240 6 5
259 6 12
63 11 42
77 11 44
167 11 41
181 11 54
143 13 8
155 13 14
195 13 15
207 13 64
221 13 30
233 13 42
144 14 2
155 14 7
250 16 28
259 16 83
174 18 63
181 18 75
149 19 16
155 19 16
20 20 4
25 20 25
47 21 50
51 21 95
48 22 14
51 22 20
154 24 7
155 24 88
0 26 -1
260 26 1.414213562373095
1 27 -1
261 27 1.414213562373095
2 28 -1
262 28 1.414213562373095
3 29 -1
263 29 1.414213562373095
4 30 -1
264 30 1.414213562373095
5 31 -1
265 31 1.414213562373095
6 32 -1
266 32 1.414213562373095
7 33 -1
267 33 1.414213562373095
8 34 -1
268 34 1.414213562373095
9 35 -1
269 35 1.414213562373095
10 36 -1
270 36 1.414213562373095
11 37 -1
271 37 1.414213562373095
12 38 -1
272 38 1.414213562373095
13 39 -1
273 39 1.414213562373095
14 40 -1
274 40 1.414213562373095
15 41 -1
275 41 1.414213562373095
16 42 -1
276 42 1.414213562373095
17 43 -1
277 43 1.414213562373095
18 44 -1
278 44 1.414213562373095
19 45 -1
279 45 1.414213562373095
20 46 -1
280 46 1.414213562373095
21 47 -1
281 47 1.414213562373095
22 48 -1
282 48 1.414213562373095
23 49 -1
283 49 1.414213562373095
24 50 -1
284 50 1.414213562373095
25 51 1
285 51 0.7071067811865476
286 51 1.414213562373095
26 52 -1
287 52 1.414213562373095
27 53 -1
288 53 1.414213562373095
28 54 -1
289 54 1.414213562373095
29 55 -1
290 55 1.414213562373095
30 56 -1
291 56 1.414213562373095
31 57 -1
292 57 1.414213562373095
32 58 -1
293 58 1.414213562373095
33 59 -1
294 59 1.414213562373095
34 60 -1
295 60 1.414213562373095
35 61 -1
296 61 1.414213562373095
36 62 -1
297 62 1.414213562373095
37 63 -1
298 63 1.414213562373095
38 64 -1
299 64 1.414213562373095
39 65 -1
300 65 1.414213562373095
40 66 -1
301 66 1.414213562373095
41 67 -1
302 67 1.414213562373095
42 68 -1
303 68 1.414213562373095
43 69 -1
304 69 1.414213562373095
44 70 -1
305 70 1.414213562373095
45 71 -1
306 71 1.414213562373095
46 72 -1
307 72 1.414213562373095
47 73 -1
308 73 1.414213562373095
48 74 -1
309 74 1.414213562373095
49 75 -1
310 75 1.414213562373095
50 76 -1
311 76 1.414213562373095
51 77 1
312 77 0.7071067811865476
313 77 1.414213562373095
52 78 -1
314 78 1.414213562373095
53 79 -1
315 79 1.414213562373095
54 80 -1
316 80 1.414213562373095
55 81 -1
317 81 1.414213562373095
56 82 -1
318 82 1.414213562373095
57 83 -1
319 83 1.414213562373095
58 84 -1
320 84 1.414213562373095
59 85 -1
321 85 1.414213562373095
60 86 -1
322 86 1.414213562373095
61 87 -1
323 87 1.414213562373095
62 88 -1
324 88 1.414213562373095
63 89 -1
325 89 1.414213562373095
64 90 -1
326 90 1.414213562373095
65 91 -1
327 91 1.414213562373095
66 92 -1
328 92 1.414213562373095
67 93 -1
329 93 1.414213562373095
68 94 -1
330 94 1.414213562373095
69 95 -1
331 95 1.414213562373095
70 96 -1
332 96 1.414213562373095
71 97 -1
333 97 1.414213562373095
72 98 -1
334 98 1.414213562373095
73 99 -1
335 99 1.414213562373095
74 100 -1
336 100 1.414213562373095
75 101 -1
337 101 1.414213562373095
76 102 -1
338 102 1.414213562373095
77 103 1
339 103 0.7071067811865476
340 103 1.414213562373095
78 104 -1
341 104 1.414213562373095
79 105 -1
342 105 1.414213562373095
80 106 -1
343 106 1.414213562373095
81 107 -1
344 107 1.414213562373095
82 108 -1
345 108 1.414213562373095
83 109 -1
346 109 1.414213562373095
84 110 -1
347 110 1.414213562373095
85 111 -1
348 111 1.414213562373095
86 112 -1
349 112 1.414213562373095
87 113 -1
350 113 1.414213562373095
88 114 -1
351 114 1.414213562373095
89 115 -1
352 115 1.414213562373095
90 116 -1
353 116 1.414213562373095
91 117 -1
354 117 1.414213562373095
92 118 -1
355 118 1.414213562373095
93 119 -1
356 119 1.414213562373095
94 120 -1
357 120 1.414213562373095
95 121 -1
358 121 1.414213562373095
96 122 -1
359 122 1.414213562373095
97 123 -1
360 123 1.414213562373095
98 124 -1
361 124 1.414213562373095
99 125 -1
362 125 1.414213562373095
100 126 -1
363 126 1.414213562373095
101 127 -1
364 127 1.414213562373095
102 128 -1
365 128 1.414213562373095
103 129 1
366 129 0.7071067811865476
367 129 1.414213562373095
104 130 -1
368 130 1.414213562373095
105 131 -1
369 131 1.414213562373095
106 132 -1
370 132 1.414213562373095
107 133 -1
371 133 1.414213562373095
108 134 -1
372 134 1.414213562373095
109 135 -1
373 135 1.414213562373095
110 136 -1
374 136 1.414213562373095
111 137 -1
375 137 1.414213562373095
112 138 -1
376 138 1.414213562373095
113 139 -1
377 139 1.414213562373095
114 140 -1
378 140 1.414213562373095
115 141 -1
379 141 1.414213562373095
116 142 -1
380 142 1.414213562373095
117 143 -1
381 143 1.414213562373095
118 144 -1
382 144 1.414213562373095
119 145 -1
383 145 1.414213562373095
120 146 -1
384 146 1.414213562373095
121 147 -1
385 147 1.414213562373095
122 148 -1
386 148 1.414213562373095
123 149 -1
387 149 1.414213562373095
124 150 -1
388 150 1.414213562373095
125 151 -1
389 151 1.414213562373095
126 152 -1
390 152 1.414213562373095
127 153 -1
391 153 1.414213562373095
128 154 -1
392 154 1.414213562373095
129 155 1
393 155 0.7071067811865476
394 155 1.414213562373095
130 156 -1
395 156 1.414213562373095
131 157 -1
396 157 1.414213562373095
132 158 -1
397 158 1.414213562373095
133 159 -1
398 159 1.414213562373095
134 160 -1
399 160 1.414213562373095
135 161 -1
400 161 1.414213562373095
136 162 -1
401 162 1.414213562373095
137 163 -1
402 163 1.414213562373095
138 164 -1
403 164 1.414213562373095
139 165 -1
404 165 1.414213562373095
140 166 -1
405 166 1.414213562373095
141 167 -1
406 167 1.414213562373095
142 168 -1
407 168 1.414213562373095
143 169 -1
408 169 1.414213562373095
144 170 -1
409 170 1.414213562373095
145 171 -1
410 171 1.414213562373095
146 172 -1
411 172 1.414213562373095
147 173 -1
412 173 1.414213562373095
148 174 -1
413 174 1.414213562373095
149 175 -1
414 175 1.414213562373095
150 176 -1
415 176 1.414213562373095
151 177 -1
416 177 1.414213562373095
152 178 -1
417 178 1.414213562373095
153 179 -1
418 179 1.414213562373095
154 180 -1
419 180 1.414213562373095
155 181 1
420 181 0.7071067811865476
421 181 1.414213562373095
156 182 -1
422 182 1.414213562373095
157 183 -1
423 183 1.414213562373095
158 184 -1
424 184 1.414213562373095
159 185 -1
425 185 1.414213562373095
160 186 -1
426 186 1.414213562373095
161 187 -1
427 187 1.414213562373095
162 188 -1
428 188 1.414213562373095
163 189 -1
429 189 1.414213562373095
164 190 -1
430 190 1.414213562373095
165 191 -1
431 191 1.414213562373095
166 192 -1
432 192 1.414213562373095
167 193 -1
433 193 1.414213562373095
168 194 -1
434 194 1.414213562373095
169 195 -1
435 195 1.414213562373095
170 196 -1
436 196 1.414213562373095
171 197 -1
437 197 1.414213562373095
172 198 -1
438 198 1.414213562373095
173 199 -1
439 199 1.414213562373095
174 200 -1
440 200 1.414213562373095
175 201 -1
441 201 1.414213562373095
176 202 -1
442 202 1.414213562373095
177 203 -1
443 203 1.414213562373095
178 204 -1
444 204 1.414213562373095
179 205 -1
445 205 1.414213562373095
180 206 -1
446 206 1.414213562373095
181 207 1
447 207 0.7071067811865476
448 207 1.414213562373095
182 208 -1
449 208 1.414213562373095
183 209 -1
450 209 1.414213562373095
184 210 -1
451 210 1.414213562373095
185 211 -1
452 211 1.414213562373095
186 212 -1
453 212 1.414213562373095
187 213 -1
454 213 1.414213562373095
188 214 -1
455 214 1.414213562373095
189 215 -1
456 215 1.414213562373095
190 216 -1
457 216 1.414213562373095
191 217 -1
458 217 1.414213562373095
192 218 -1
459 218 1.414213562373095
193 219 -1
460 219 1.414213562373095
194 220 -1
461 220 1.414213562373095
195 221 -1
462 221 1.414213562373095
196 222 -1
463 222 1.414213562373095
197 223 -1
464 223 1.414213562373095
198 224 -1
465 224 1.414213562373095
199 225 -1
466 225 1.414213562373095
200 226 -1
467 226 1.414213562373095
201 227 -1
468 227 1.414213562373095
202 228 -1
469 228 1.414213562373095
203 229 -1
470 229 1.414213562373095
204 230 -1
471 230 1.414213562373095
205 231 -1
472 231 1.414213562373095
206 232 -1
473 232 1.414213562373095
207 233 1
474 233 0.7071067811865476
475 233 1.414213562373095
208 234 -1
476 234 1.414213562373095
209 235 -1
477 235 1.414213562373095
210 236 -1
478 236 1.414213562373095
211 237 -1
479 237 1.414213562373095
212 238 -1
480 238 1.414213562373095
213 239 -1
481 239 1.414213562373095
214 240 -1
482 240 1.414213562373095
215 241 -1
483 241 1.414213562373095
216 242 -1
484 242 1.414213562373095
217 243 -1
485 243 1.414213562373095
218 244 -1
486 244 1.414213562373095
219 245 -1
487 245 1.414213562373095
220 246 -1
488 246 1.414213562373095
221 247 -1
489 247 1.414213562373095
222 248 -1
490 248 1.414213562373095
223 249 -1
491 249 1.414213562373095
224 250 -1
492 250 1.414213562373095
225 251 -1
493 251 1.414213562373095
226 252 -1
494 252 1.414213562373095
227 253 -1
495 253 1.414213562373095
228 254 -1
496 254 1.414213562373095
229 255 -1
497 255 1.414213562373095
230 256 -1
498 256 1.414213562373095
231 257 -1
499 257 1.414213562373095
232 258 -1
500 258 1.414213562373095
233 259 1
501 259 0.7071067811865476
502 259 1.414213562373095
234 260 -1
503 260 1.414213562373095
235 261 -1
504 261 1.414213562373095
236 262 -1
505 262 1.414213562373095
237 263 -1
506 263 1.414213562373095
238 264 -1
507 264 1.414213562373095
239 265 -1
508 265 1.414213562373095
240 266 -1
509 266 1.414213562373095
241 267 -1
510 267 1.414213562373095
242 268 -1
511 268 1.414213562373095
243 269 -1
512 269 1.414213562373095
244 270 -1
513 270 1.414213562373095
245 271 -1
514 271 1.414213562373095
246 272 -1
515 272 1.414213562373095
247 273 -1
516 273 1.414213562373095
248 274 -1
517 274 1.414213562373095
249 275 -1
518 275 1.414213562373095
250 276 -1
519 276 1.414213562373095
251 277 -1
520 277 1.414213562373095
252 278 -1
521 278 1.414213562373095
253 279 -1
522 279 1.414213562373095
254 280 -1
523 280 1.414213562373095
255 281 -1
524 281 1.414213562373095
256 282 -1
525 282 1.414213562373095
257 283 -1
526 283 1.414213562373095
258 284 -1
527 284 1.414213562373095
259 285 1
528 285 0.7071067811865476
529 285 1.414213562373095
286 286 -1
285 287 -1
260 288 -1
261 289 -1
262 290 -1
263 291 -1
264 292 -1
265 293 -1
266 294 -1
267 295 -1
268 296 -1
269 297 -1
270 298 -1
271 299 -1
272 300 -1
273 301 -1
274 302 -1
275 303 -1
276 304 -1
277 305 -1
278 306 -1
279 307 -1
280 308 -1
281 309 -1
282 310 -1
283 311 -1
284 312 -1
313 313 -1
312 314 -1
287 315 -1
288 316 -1
289 317 -1
290 318 -1
291 319 -1
292 320 -1
293 321 -1
294 322 -1
295 323 -1
296 324 -1
297 325 -1
298 326 -1
299 327 -1
300 328 -1
301 329 -1
302 330 -1
303 331 -1
304 332 -1
305 333 -1
306 334 -1
307 335 -1
308 336 -1
309 337 -1
310 338 -1
311 339 -1
340 340 -1
339 341 -1
314 342 -1
315 343 -1
316 344 -1
317 345 -1
318 346 -1
319 347 -1
320 348 -1
321 349 -1
322 350 -1
323 351 -1
324 352 -1
325 353 -1
326 354 -1
327 355 -1
328 356 -1
329 357 -1
330 358 -1
331 359 -1
332 360 -1
333 361 -1
334 362 -1
335 363 -1
336 364 -1
337 365 -1
338 366 -1
367 367 -1
366 368 -1
341 369 -1
342 370 -1
343 371 -1
344 372 -1
345 373 -1
346 374 -1
347 375 -1
348 376 -1
349 377 -1
350 378 -1
351 379 -1
352 380 -1
353 381 -1
354 382 -1
355 383 -1
356 384 -1
357 385 -1
358 386 -1
359 387 -1
360 388 -1
361 389 -1
362 390 -1
363 391 -1
364 392 -1
365 393 -1
394 394 -1
393 395 -1
368 396 -1
369 397 -1
370 398 -1
371 399 -1
372 400 -1
373 401 -1
374 402 -1
375 403 -1
376 404 -1
377 405 -1
378 406 -1
379 407 -1
380 408 -1
381 409 -1
382 410 -1
383 411 -1
384 412 -1
385 413 -1
386 414 -1
387 415 -1
388 416 -1
389 417 -1
390 418 -1
391 419 -1
392 420 -1
421 421 -1
420 422 -1
395 423 -1
396 424 -1
397 425 -1
398 426 -1
399 427 -1
400 428 -1
401 429 -1
402 430 -1
403 431 -1
404 432 -1
405 433 -1
406 434 -1
407 435 -1
408 436 -1
409 437 -1
410 438 -1
411 439 -1
412 440 -1
413 441 -1
414 442 -1
415 443 -1
416 444 -1
417 445 -1
418 446 -1
419 447 -1
448 448 -1
447 449 -1
422 450 -1
423 451 -1
424 452 -1
425 453 -1
426 454 -1
427 455 -1
428 456 -1
429 457 -1
430 458 -1
431 459 -1
432 460 -1
433 461 -1
434 462 -1
435 463 -1
436 464 -1
437 465 -1
438 466 -1
439 467 -1
440 468 -1
441 469 -1
442 470 -1
443 471 -1
444 472 -1
445 473 -1
446 474 -1
475 475 -1
474 476 -1
449 477 -1
450 478 -1
451 479 -1
452 480 -1
453 481 -1
454 482 -1
455 483 -1
456 484 -1
457 485 -1
458 486 -1
459 487 -1
460 488 -1
461 489 -1
462 490 -1
463 491 -1
464 492 -1
465 493 -1
466 494 -1
467 495 -1
468 496 -1
469 497 -1
470 498 -1
471 499 -1
472 500 -1
473 501 -1
502 502 -1
501 503 -1
476 504 -1
477 505 -1
478 506 -1
479 507 -1
480 508 -1
481 509 -1
482 510 -1
483 511 -1
484 512 -1
485 513 -1
486 514 -1
487 515 -1
488 516 -1
489 517 -1
490 518 -1
491 519 -1
492 520 -1
493 521 -1
494 522 -1
495 523 -1
496 524 -1
497 525 -1
498 526 -1
499 527 -1
500 528 -1
529 529 -1
528 530 -1
503 531 -1
504 532 -1
505 533 -1
506 534 -1
507 535 -1
508 536 -1
509 537 -1
510 538 -1
511 539 -1
512 540 -1
513 541 -1
514 542 -1
515 543 -1
516 544 -1
517 545 -1
518 546 -1
519 547 -1
520 548 -1
521 549 -1
522 550 -1
523 551 -1
524 552 -1
525 553 -1
526 554 -1
527 555 -1
530 0 1
531 1 1
532 2 1
533 3 1
534 4 1
535 5 1
536 6 1
537 7 1
538 8 1
539 9 1
540 10 1
541 11 1
542 12 1
543 13 1
544 14 1
545 15 1
546 16 1
547 17 1
548 18 1
549 19 1
550 20 1
551 21 1
552 22 1
553 23 1
554 24 1

BCOORD
33
25 -29
51 -145
77 -86
155 -120
181 -157
207 -82
233 -72
259 -111
530 -1
531 -1
532 -1
533 -1
534 -1
535 -1
536 -1
537 -1
538 -1
539 -1
540 -1
541 -1
542 -1
543 -1
544 -1
545 -1
546 -1
547 -1
548 -1
549 -1
550 -1
551 -1
552 -1
553 -1
554 -1
