benchmark/outputs/ck_n25_m10_o1_1.cbf.txt
instance ck_n25_m10_o1_1.cbf
ran at: 2019-01-18T18:52:58.754


reading instance and constructing model...
took 0.859793794 seconds

solving model...

finding initial iterate
initial iterate found
starting iteration

 iter        p_obj        d_obj   abs_gap   rel_gap     p_inf     d_inf       tau       kap        mu
    0  -9.1379e+03  -8.2700e+02  3.40e+02  3.72e-02  6.76e+01  6.14e-01  1.00e+00  1.00e+00  1.00e+00
    1  -9.3850e+03  -1.0752e+03  2.43e+02  2.59e-02  6.76e+01  6.14e-01  7.16e-01  1.00e+00  7.16e-01
    2  -9.7316e+03  -1.4249e+03  1.74e+02  1.79e-02  6.75e+01  6.13e-01  5.13e-01  9.99e-01  5.13e-01
    3  -1.0210e+04  -1.9105e+03  1.25e+02  1.22e-02  6.75e+01  6.13e-01  3.68e-01  9.98e-01  3.67e-01
    4  -1.0827e+04  -2.5450e+03  8.94e+01  8.26e-03  6.73e+01  6.11e-01  2.64e-01  9.96e-01  2.63e-01
    5  -1.1289e+04  -3.0283e+03  7.17e+01  6.35e-03  6.71e+01  6.10e-01  2.12e-01  9.93e-01  2.11e-01
    6  -1.1747e+04  -3.5220e+03  5.74e+01  4.89e-03  6.68e+01  6.07e-01  1.71e-01  9.89e-01  1.69e-01
    7  -1.2159e+04  -3.9886e+03  4.60e+01  3.78e-03  6.64e+01  6.03e-01  1.38e-01  9.82e-01  1.35e-01
    8  -1.2494e+04  -4.4045e+03  3.69e+01  2.95e-03  6.57e+01  5.97e-01  1.12e-01  9.72e-01  1.08e-01
    9  -1.2745e+04  -4.7687e+03  2.95e+01  2.32e-03  6.48e+01  5.88e-01  9.07e-02  9.58e-01  8.69e-02
   10  -1.2922e+04  -5.0960e+03  2.37e+01  1.83e-03  6.35e+01  5.77e-01  7.41e-02  9.40e-01  6.96e-02
   11  -1.3039e+04  -5.4071e+03  1.90e+01  1.45e-03  6.19e+01  5.63e-01  6.09e-02  9.16e-01  5.58e-02
   12  -1.3137e+04  -5.8904e+03  1.36e+01  1.03e-03  5.88e+01  5.34e-01  4.60e-02  8.69e-01  4.00e-02
   13  -1.3169e+04  -6.4335e+03  9.73e+00  7.39e-04  5.46e+01  4.96e-01  3.55e-02  8.07e-01  2.86e-02
   14  -1.3168e+04  -6.8411e+03  7.80e+00  5.92e-04  5.12e+01  4.65e-01  3.03e-02  7.58e-01  2.29e-02
   15  -1.3151e+04  -7.2796e+03  6.25e+00  4.75e-04  4.75e+01  4.32e-01  2.62e-02  7.03e-01  1.84e-02
   16  -1.3112e+04  -7.7365e+03  5.01e+00  3.82e-04  4.35e+01  3.95e-01  2.29e-02  6.43e-01  1.47e-02
   17  -1.3055e+04  -8.2050e+03  4.01e+00  3.07e-04  3.92e+01  3.56e-01  2.04e-02  5.80e-01  1.18e-02
   18  -1.2989e+04  -8.6788e+03  3.21e+00  2.47e-04  3.48e+01  3.16e-01  1.84e-02  5.15e-01  9.45e-03
   19  -1.2917e+04  -9.1424e+03  2.58e+00  1.99e-04  3.05e+01  2.77e-01  1.68e-02  4.50e-01  7.57e-03
   20  -1.2842e+04  -9.5816e+03  2.06e+00  1.61e-04  2.63e+01  2.39e-01  1.56e-02  3.89e-01  6.07e-03
   21  -1.2766e+04  -9.9876e+03  1.65e+00  1.30e-04  2.24e+01  2.04e-01  1.47e-02  3.31e-01  4.86e-03
   22  -1.2692e+04  -1.0353e+04  1.33e+00  1.04e-04  1.89e+01  1.71e-01  1.40e-02  2.79e-01  3.90e-03
   23  -1.2624e+04  -1.0675e+04  1.06e+00  8.41e-05  1.57e+01  1.43e-01  1.34e-02  2.32e-01  3.12e-03
   24  -1.2564e+04  -1.0954e+04  8.51e-01  6.77e-05  1.30e+01  1.18e-01  1.31e-02  1.92e-01  2.50e-03
   25  -1.2489e+04  -1.1298e+04  6.09e-01  4.88e-05  9.59e+00  8.71e-02  1.26e-02  1.42e-01  1.79e-03
   26  -1.2432e+04  -1.1561e+04  4.36e-01  3.51e-05  7.02e+00  6.37e-02  1.24e-02  1.04e-01  1.28e-03
   27  -1.2390e+04  -1.1758e+04  3.13e-01  2.52e-05  5.09e+00  4.63e-02  1.22e-02  7.53e-02  9.19e-04
   28  -1.2359e+04  -1.1902e+04  2.24e-01  1.81e-05  3.68e+00  3.34e-02  1.21e-02  5.44e-02  6.58e-04
   29  -1.2337e+04  -1.2008e+04  1.60e-01  1.30e-05  2.65e+00  2.41e-02  1.20e-02  3.92e-02  4.72e-04
   30  -1.2314e+04  -1.2117e+04  9.53e-02  7.74e-06  1.59e+00  1.44e-02  1.20e-02  2.34e-02  2.80e-04
   31  -1.2301e+04  -1.2183e+04  5.67e-02  4.61e-06  9.46e-01  8.60e-03  1.19e-02  1.40e-02  1.67e-04
   32  -1.2293e+04  -1.2223e+04  3.37e-02  2.74e-06  5.64e-01  5.12e-03  1.19e-02  8.33e-03  9.91e-05
   33  -1.2288e+04  -1.2246e+04  2.00e-02  1.63e-06  3.35e-01  3.05e-03  1.19e-02  4.96e-03  5.89e-05
   34  -1.2285e+04  -1.2260e+04  1.19e-02  9.70e-07  2.00e-01  1.81e-03  1.19e-02  2.95e-03  3.50e-05
   35  -1.2283e+04  -1.2272e+04  5.01e-03  4.08e-07  8.40e-02  7.63e-04  1.19e-02  1.24e-03  1.47e-05
   36  -1.2281e+04  -1.2277e+04  2.11e-03  1.72e-07  3.54e-02  3.21e-04  1.19e-02  5.22e-04  6.20e-06
   37  -1.2281e+04  -1.2280e+04  3.64e-04  2.96e-08  6.11e-03  5.55e-05  1.19e-02  9.02e-05  1.07e-06
   38  -1.2281e+04  -1.2281e+04  6.28e-05  5.12e-09  1.05e-03  9.57e-06  1.19e-02  1.56e-05  1.85e-07
   39  -1.2281e+04  -1.2281e+04  1.08e-05  8.83e-10  1.82e-04  1.65e-06  1.19e-02  2.69e-06  3.19e-08
   40  -1.2281e+04  -1.2281e+04  1.87e-06  1.52e-10  3.14e-05  2.85e-07  1.19e-02  4.64e-07  5.51e-09
   41  -1.2281e+04  -1.2281e+04  3.23e-07  2.63e-11  5.42e-06  4.92e-08  1.19e-02  8.01e-08  9.51e-10
   42  -1.2281e+04  -1.2281e+04  5.58e-08  4.54e-12  9.36e-07  8.50e-09  1.19e-02  1.38e-08  1.64e-10
   43  -1.2281e+04  -1.2281e+04  9.63e-09  7.84e-13  1.62e-07  1.47e-09  1.19e-02  2.39e-09  2.83e-11
   44  -1.2281e+04  -1.2281e+04  1.66e-09  1.35e-13  2.79e-08  2.53e-10  1.19e-02  4.12e-10  4.89e-12
optimal solution found; terminating

status is Optimal after 44 iterations and 0.401 seconds


Hypatia finished
took 0.693755868 seconds
memory allocation data:
Base.GC_Diff
  allocd: Int64 58374027
  malloc: Int64 280
  realloc: Int64 15
  poolalloc: Int64 975773
  bigalloc: Int64 327
  freecall: Int64 252
  total_time: Int64 28674725
  pause: Int64 3
  full_sweep: Int64 0

